NAME 
OBJSENSE MAX
ROWS
 N  OBJ
 L  packing[0]
 L  packing[1]
 L  packing[2]
 L  packing[3]
 L  packing[4]
 L  packing[5]
 L  packing[6]
 L  packing[7]
 L  packing[8]
 L  packing[9]
 L  packing[10]
 L  packing[11]
 L  packing[12]
 L  packing[13]
 L  packing[14]
 L  packing[15]
 L  packing[16]
 L  packing[17]
 L  packing[18]
 L  packing[19]
 L  packing[20]
 L  packing[21]
 L  packing[22]
 L  packing[23]
 L  packing[24]
 L  packing[25]
 L  packing[26]
 L  packing[27]
 L  packing[28]
 L  packing[29]
 L  packing[30]
 L  packing[31]
 L  packing[32]
 L  packing[33]
 L  packing[34]
 L  packing[35]
 L  packing[36]
 L  packing[37]
 L  packing[38]
 L  packing[39]
 L  packing[40]
 L  packing[41]
 L  packing[42]
 L  packing[43]
 L  packing[44]
 L  packing[45]
 L  packing[46]
 L  packing[47]
 L  packing[48]
 L  packing[49]
 L  R52     
COLUMNS
    MARKER    'MARKER'                 'INTORG'
    x[1]      OBJ       199
    x[1]      packing[0]  126
    x[1]      packing[1]  99
    x[1]      packing[3]  59
    x[1]      packing[5]  140
    x[1]      packing[7]  90
    x[1]      packing[9]  185
    x[1]      packing[10]  129
    x[1]      packing[11]  26
    x[1]      packing[12]  20
    x[1]      packing[13]  169
    x[1]      packing[14]  78
    x[1]      packing[15]  59
    x[1]      packing[16]  127
    x[1]      packing[17]  13
    x[1]      packing[18]  53
    x[1]      packing[19]  112
    x[1]      packing[20]  195
    x[1]      packing[21]  147
    x[1]      packing[22]  44
    x[1]      packing[23]  1
    x[1]      packing[24]  174
    x[1]      packing[25]  115
    x[1]      packing[27]  110
    x[1]      packing[29]  98
    x[1]      packing[30]  170
    x[1]      packing[31]  70
    x[1]      packing[32]  65
    x[1]      packing[33]  170
    x[1]      packing[34]  144
    x[1]      packing[36]  149
    x[1]      packing[37]  107
    x[1]      packing[39]  2
    x[1]      packing[40]  153
    x[1]      packing[41]  163
    x[1]      packing[45]  73
    x[1]      packing[46]  52
    x[1]      packing[47]  136
    x[1]      R52       1
    x[2]      OBJ       152
    x[2]      packing[1]  196
    x[2]      packing[2]  126
    x[2]      packing[4]  73
    x[2]      packing[5]  93
    x[2]      packing[6]  49
    x[2]      packing[9]  158
    x[2]      packing[10]  175
    x[2]      packing[11]  39
    x[2]      packing[13]  191
    x[2]      packing[14]  163
    x[2]      packing[15]  102
    x[2]      packing[16]  134
    x[2]      packing[17]  106
    x[2]      packing[18]  5
    x[2]      packing[19]  42
    x[2]      packing[20]  29
    x[2]      packing[21]  47
    x[2]      packing[22]  83
    x[2]      packing[25]  106
    x[2]      packing[26]  91
    x[2]      packing[27]  74
    x[2]      packing[31]  164
    x[2]      packing[32]  2
    x[2]      packing[33]  120
    x[2]      packing[34]  114
    x[2]      packing[35]  178
    x[2]      packing[38]  143
    x[2]      packing[39]  182
    x[2]      packing[40]  186
    x[2]      packing[41]  27
    x[2]      packing[43]  130
    x[2]      packing[44]  130
    x[2]      packing[45]  33
    x[2]      packing[46]  196
    x[2]      packing[47]  127
    x[2]      packing[49]  134
    x[3]      OBJ       78
    x[3]      packing[0]  143
    x[3]      packing[1]  82
    x[3]      packing[2]  53
    x[3]      packing[3]  74
    x[3]      packing[4]  39
    x[3]      packing[5]  92
    x[3]      packing[7]  11
    x[3]      packing[8]  56
    x[3]      packing[10]  85
    x[3]      packing[11]  24
    x[3]      packing[12]  141
    x[3]      packing[16]  153
    x[3]      packing[17]  177
    x[3]      packing[18]  36
    x[3]      packing[20]  141
    x[3]      packing[21]  198
    x[3]      packing[23]  65
    x[3]      packing[25]  30
    x[3]      packing[27]  145
    x[3]      packing[28]  183
    x[3]      packing[30]  88
    x[3]      packing[31]  139
    x[3]      packing[33]  48
    x[3]      packing[34]  73
    x[3]      packing[35]  41
    x[3]      packing[37]  173
    x[3]      packing[38]  152
    x[3]      packing[39]  178
    x[3]      packing[40]  195
    x[3]      packing[43]  19
    x[3]      packing[44]  117
    x[3]      packing[46]  99
    x[3]      packing[47]  119
    x[3]      packing[49]  34
    x[4]      OBJ       138
    x[4]      packing[0]  105
    x[4]      packing[1]  183
    x[4]      packing[2]  74
    x[4]      packing[3]  196
    x[4]      packing[4]  175
    x[4]      packing[5]  72
    x[4]      packing[8]  139
    x[4]      packing[9]  104
    x[4]      packing[10]  160
    x[4]      packing[12]  74
    x[4]      packing[13]  136
    x[4]      packing[14]  131
    x[4]      packing[15]  61
    x[4]      packing[16]  110
    x[4]      packing[17]  96
    x[4]      packing[18]  191
    x[4]      packing[19]  145
    x[4]      packing[20]  118
    x[4]      packing[21]  5
    x[4]      packing[22]  142
    x[4]      packing[23]  129
    x[4]      packing[24]  9
    x[4]      packing[27]  3
    x[4]      packing[29]  172
    x[4]      packing[30]  99
    x[4]      packing[32]  168
    x[4]      packing[33]  153
    x[4]      packing[34]  13
    x[4]      packing[37]  183
    x[4]      packing[38]  163
    x[4]      packing[40]  32
    x[4]      packing[41]  150
    x[4]      packing[42]  195
    x[4]      packing[43]  13
    x[4]      packing[44]  49
    x[4]      packing[45]  51
    x[4]      packing[46]  82
    x[4]      packing[47]  42
    x[4]      packing[48]  39
    x[4]      packing[49]  25
    x[5]      OBJ       196
    x[5]      packing[0]  23
    x[5]      packing[1]  16
    x[5]      packing[2]  185
    x[5]      packing[5]  189
    x[5]      packing[6]  147
    x[5]      packing[7]  72
    x[5]      packing[10]  192
    x[5]      packing[11]  6
    x[5]      packing[15]  1
    x[5]      packing[16]  142
    x[5]      packing[19]  33
    x[5]      packing[20]  136
    x[5]      packing[21]  98
    x[5]      packing[22]  118
    x[5]      packing[23]  33
    x[5]      packing[24]  13
    x[5]      packing[25]  178
    x[5]      packing[26]  8
    x[5]      packing[28]  123
    x[5]      packing[29]  98
    x[5]      packing[30]  96
    x[5]      packing[31]  160
    x[5]      packing[32]  71
    x[5]      packing[33]  118
    x[5]      packing[34]  58
    x[5]      packing[35]  93
    x[5]      packing[36]  37
    x[5]      packing[37]  164
    x[5]      packing[38]  3
    x[5]      packing[39]  44
    x[5]      packing[40]  115
    x[5]      packing[41]  181
    x[5]      packing[43]  110
    x[5]      packing[44]  146
    x[5]      packing[45]  51
    x[5]      packing[46]  103
    x[5]      packing[47]  171
    x[5]      packing[48]  34
    x[5]      R52       1
    x[6]      OBJ       86
    x[6]      packing[0]  1
    x[6]      packing[1]  69
    x[6]      packing[2]  180
    x[6]      packing[4]  135
    x[6]      packing[5]  197
    x[6]      packing[6]  4
    x[6]      packing[8]  90
    x[6]      packing[9]  14
    x[6]      packing[11]  15
    x[6]      packing[12]  76
    x[6]      packing[15]  185
    x[6]      packing[16]  4
    x[6]      packing[17]  14
    x[6]      packing[19]  54
    x[6]      packing[20]  26
    x[6]      packing[21]  148
    x[6]      packing[22]  118
    x[6]      packing[23]  89
    x[6]      packing[25]  178
    x[6]      packing[26]  77
    x[6]      packing[27]  116
    x[6]      packing[29]  193
    x[6]      packing[31]  8
    x[6]      packing[32]  48
    x[6]      packing[34]  183
    x[6]      packing[35]  28
    x[6]      packing[36]  60
    x[6]      packing[38]  61
    x[6]      packing[39]  145
    x[6]      packing[40]  12
    x[6]      packing[41]  190
    x[6]      packing[42]  157
    x[6]      packing[43]  85
    x[6]      packing[44]  13
    x[6]      packing[45]  89
    x[6]      packing[46]  105
    x[6]      packing[48]  74
    x[7]      OBJ       42
    x[7]      packing[0]  120
    x[7]      packing[1]  118
    x[7]      packing[2]  32
    x[7]      packing[4]  22
    x[7]      packing[5]  129
    x[7]      packing[6]  154
    x[7]      packing[7]  196
    x[7]      packing[8]  147
    x[7]      packing[9]  39
    x[7]      packing[10]  86
    x[7]      packing[11]  123
    x[7]      packing[13]  61
    x[7]      packing[14]  42
    x[7]      packing[15]  4
    x[7]      packing[16]  16
    x[7]      packing[18]  28
    x[7]      packing[19]  174
    x[7]      packing[21]  184
    x[7]      packing[22]  131
    x[7]      packing[25]  138
    x[7]      packing[26]  113
    x[7]      packing[27]  185
    x[7]      packing[28]  146
    x[7]      packing[29]  90
    x[7]      packing[30]  191
    x[7]      packing[31]  47
    x[7]      packing[32]  21
    x[7]      packing[34]  71
    x[7]      packing[35]  6
    x[7]      packing[36]  157
    x[7]      packing[37]  190
    x[7]      packing[38]  126
    x[7]      packing[39]  47
    x[7]      packing[41]  61
    x[7]      packing[42]  69
    x[7]      packing[44]  69
    x[7]      packing[45]  27
    x[7]      packing[47]  79
    x[7]      packing[48]  26
    x[7]      packing[49]  30
    x[8]      OBJ       156
    x[8]      packing[0]  130
    x[8]      packing[1]  152
    x[8]      packing[2]  146
    x[8]      packing[3]  34
    x[8]      packing[4]  37
    x[8]      packing[6]  93
    x[8]      packing[7]  30
    x[8]      packing[8]  156
    x[8]      packing[9]  4
    x[8]      packing[10]  141
    x[8]      packing[11]  5
    x[8]      packing[12]  48
    x[8]      packing[13]  98
    x[8]      packing[14]  130
    x[8]      packing[15]  4
    x[8]      packing[16]  41
    x[8]      packing[17]  119
    x[8]      packing[18]  80
    x[8]      packing[20]  79
    x[8]      packing[21]  9
    x[8]      packing[22]  6
    x[8]      packing[23]  142
    x[8]      packing[25]  152
    x[8]      packing[26]  22
    x[8]      packing[27]  27
    x[8]      packing[28]  37
    x[8]      packing[30]  147
    x[8]      packing[31]  171
    x[8]      packing[32]  18
    x[8]      packing[35]  136
    x[8]      packing[36]  99
    x[8]      packing[37]  163
    x[8]      packing[38]  116
    x[8]      packing[41]  147
    x[8]      packing[42]  36
    x[8]      packing[43]  75
    x[8]      packing[44]  118
    x[8]      packing[45]  170
    x[8]      packing[47]  67
    x[8]      packing[48]  55
    x[8]      packing[49]  1
    x[9]      OBJ       58
    x[9]      packing[0]  67
    x[9]      packing[1]  39
    x[9]      packing[2]  179
    x[9]      packing[3]  122
    x[9]      packing[4]  22
    x[9]      packing[5]  183
    x[9]      packing[6]  50
    x[9]      packing[7]  38
    x[9]      packing[9]  78
    x[9]      packing[10]  103
    x[9]      packing[11]  21
    x[9]      packing[15]  148
    x[9]      packing[17]  164
    x[9]      packing[18]  150
    x[9]      packing[20]  55
    x[9]      packing[21]  84
    x[9]      packing[22]  80
    x[9]      packing[23]  64
    x[9]      packing[24]  132
    x[9]      packing[28]  115
    x[9]      packing[29]  126
    x[9]      packing[30]  27
    x[9]      packing[31]  96
    x[9]      packing[32]  82
    x[9]      packing[33]  60
    x[9]      packing[34]  169
    x[9]      packing[35]  17
    x[9]      packing[37]  9
    x[9]      packing[39]  157
    x[9]      packing[40]  53
    x[9]      packing[42]  101
    x[9]      packing[46]  197
    x[9]      packing[48]  22
    x[9]      packing[49]  26
    x[10]     OBJ       167
    x[10]     packing[0]  194
    x[10]     packing[1]  31
    x[10]     packing[5]  33
    x[10]     packing[6]  65
    x[10]     packing[7]  166
    x[10]     packing[9]  136
    x[10]     packing[10]  190
    x[10]     packing[11]  6
    x[10]     packing[12]  20
    x[10]     packing[13]  158
    x[10]     packing[16]  157
    x[10]     packing[18]  16
    x[10]     packing[19]  130
    x[10]     packing[20]  105
    x[10]     packing[21]  61
    x[10]     packing[22]  49
    x[10]     packing[23]  175
    x[10]     packing[24]  112
    x[10]     packing[26]  54
    x[10]     packing[27]  147
    x[10]     packing[28]  118
    x[10]     packing[29]  3
    x[10]     packing[30]  133
    x[10]     packing[31]  111
    x[10]     packing[34]  65
    x[10]     packing[35]  42
    x[10]     packing[36]  38
    x[10]     packing[37]  158
    x[10]     packing[38]  4
    x[10]     packing[41]  112
    x[10]     packing[42]  65
    x[10]     packing[43]  164
    x[10]     packing[46]  173
    x[10]     packing[48]  99
    x[10]     packing[49]  136
    x[10]     R52       1
    x[11]     OBJ       120
    x[11]     packing[1]  193
    x[11]     packing[2]  158
    x[11]     packing[3]  129
    x[11]     packing[4]  32
    x[11]     packing[5]  109
    x[11]     packing[6]  63
    x[11]     packing[7]  179
    x[11]     packing[8]  71
    x[11]     packing[10]  172
    x[11]     packing[11]  124
    x[11]     packing[12]  52
    x[11]     packing[13]  118
    x[11]     packing[16]  39
    x[11]     packing[18]  122
    x[11]     packing[20]  95
    x[11]     packing[21]  131
    x[11]     packing[22]  192
    x[11]     packing[23]  194
    x[11]     packing[24]  14
    x[11]     packing[25]  111
    x[11]     packing[27]  122
    x[11]     packing[28]  180
    x[11]     packing[29]  146
    x[11]     packing[30]  25
    x[11]     packing[31]  127
    x[11]     packing[33]  14
    x[11]     packing[34]  179
    x[11]     packing[35]  82
    x[11]     packing[37]  158
    x[11]     packing[38]  106
    x[11]     packing[39]  120
    x[11]     packing[40]  116
    x[11]     packing[41]  163
    x[11]     packing[42]  99
    x[11]     packing[44]  91
    x[11]     packing[45]  55
    x[11]     packing[47]  196
    x[11]     packing[49]  4
    x[12]     OBJ       43
    x[12]     packing[0]  33
    x[12]     packing[2]  143
    x[12]     packing[3]  176
    x[12]     packing[4]  114
    x[12]     packing[5]  70
    x[12]     packing[6]  118
    x[12]     packing[7]  82
    x[12]     packing[9]  42
    x[12]     packing[12]  95
    x[12]     packing[13]  48
    x[12]     packing[16]  135
    x[12]     packing[17]  128
    x[12]     packing[18]  55
    x[12]     packing[19]  40
    x[12]     packing[20]  115
    x[12]     packing[21]  4
    x[12]     packing[22]  57
    x[12]     packing[24]  199
    x[12]     packing[26]  36
    x[12]     packing[27]  69
    x[12]     packing[30]  141
    x[12]     packing[32]  184
    x[12]     packing[33]  66
    x[12]     packing[34]  26
    x[12]     packing[35]  40
    x[12]     packing[37]  91
    x[12]     packing[38]  100
    x[12]     packing[40]  125
    x[12]     packing[41]  21
    x[12]     packing[42]  2
    x[12]     packing[43]  49
    x[12]     packing[44]  27
    x[12]     packing[46]  146
    x[12]     packing[47]  132
    x[12]     packing[48]  131
    x[13]     OBJ       186
    x[13]     packing[0]  163
    x[13]     packing[1]  155
    x[13]     packing[3]  35
    x[13]     packing[4]  128
    x[13]     packing[5]  189
    x[13]     packing[10]  136
    x[13]     packing[12]  54
    x[13]     packing[13]  65
    x[13]     packing[14]  62
    x[13]     packing[16]  73
    x[13]     packing[17]  43
    x[13]     packing[18]  185
    x[13]     packing[20]  103
    x[13]     packing[21]  9
    x[13]     packing[22]  7
    x[13]     packing[23]  108
    x[13]     packing[24]  13
    x[13]     packing[25]  122
    x[13]     packing[26]  130
    x[13]     packing[27]  154
    x[13]     packing[28]  59
    x[13]     packing[29]  137
    x[13]     packing[31]  55
    x[13]     packing[32]  171
    x[13]     packing[33]  30
    x[13]     packing[35]  66
    x[13]     packing[36]  92
    x[13]     packing[37]  62
    x[13]     packing[38]  17
    x[13]     packing[39]  184
    x[13]     packing[40]  115
    x[13]     packing[41]  51
    x[13]     packing[42]  100
    x[13]     packing[44]  39
    x[13]     packing[46]  104
    x[13]     packing[47]  131
    x[13]     packing[48]  103
    x[14]     OBJ       153
    x[14]     packing[1]  122
    x[14]     packing[3]  110
    x[14]     packing[4]  147
    x[14]     packing[5]  181
    x[14]     packing[7]  160
    x[14]     packing[9]  27
    x[14]     packing[10]  145
    x[14]     packing[11]  42
    x[14]     packing[12]  50
    x[14]     packing[13]  172
    x[14]     packing[18]  2
    x[14]     packing[19]  133
    x[14]     packing[21]  153
    x[14]     packing[22]  156
    x[14]     packing[24]  99
    x[14]     packing[25]  189
    x[14]     packing[26]  59
    x[14]     packing[27]  21
    x[14]     packing[29]  40
    x[14]     packing[34]  131
    x[14]     packing[35]  119
    x[14]     packing[36]  196
    x[14]     packing[37]  128
    x[14]     packing[38]  20
    x[14]     packing[40]  172
    x[14]     packing[42]  182
    x[14]     packing[43]  191
    x[14]     packing[45]  22
    x[14]     packing[46]  148
    x[14]     packing[47]  160
    x[14]     packing[48]  132
    x[14]     packing[49]  23
    x[15]     OBJ       50
    x[15]     packing[1]  53
    x[15]     packing[2]  37
    x[15]     packing[3]  137
    x[15]     packing[4]  94
    x[15]     packing[5]  109
    x[15]     packing[9]  77
    x[15]     packing[10]  184
    x[15]     packing[11]  109
    x[15]     packing[15]  149
    x[15]     packing[16]  128
    x[15]     packing[20]  108
    x[15]     packing[21]  122
    x[15]     packing[22]  153
    x[15]     packing[23]  157
    x[15]     packing[24]  154
    x[15]     packing[25]  73
    x[15]     packing[26]  54
    x[15]     packing[27]  146
    x[15]     packing[29]  27
    x[15]     packing[33]  142
    x[15]     packing[34]  195
    x[15]     packing[35]  163
    x[15]     packing[36]  49
    x[15]     packing[38]  102
    x[15]     packing[39]  187
    x[15]     packing[40]  145
    x[15]     packing[41]  1
    x[15]     packing[42]  26
    x[15]     packing[43]  159
    x[15]     packing[44]  192
    x[15]     packing[45]  186
    x[15]     packing[47]  198
    x[16]     OBJ       175
    x[16]     packing[0]  32
    x[16]     packing[1]  11
    x[16]     packing[3]  120
    x[16]     packing[4]  195
    x[16]     packing[6]  155
    x[16]     packing[7]  68
    x[16]     packing[8]  76
    x[16]     packing[10]  181
    x[16]     packing[11]  114
    x[16]     packing[12]  76
    x[16]     packing[13]  139
    x[16]     packing[14]  132
    x[16]     packing[15]  81
    x[16]     packing[16]  76
    x[16]     packing[17]  191
    x[16]     packing[18]  195
    x[16]     packing[19]  192
    x[16]     packing[20]  45
    x[16]     packing[21]  21
    x[16]     packing[22]  48
    x[16]     packing[24]  169
    x[16]     packing[26]  199
    x[16]     packing[27]  51
    x[16]     packing[28]  145
    x[16]     packing[29]  98
    x[16]     packing[30]  179
    x[16]     packing[31]  61
    x[16]     packing[32]  124
    x[16]     packing[33]  124
    x[16]     packing[34]  189
    x[16]     packing[36]  43
    x[16]     packing[37]  106
    x[16]     packing[38]  55
    x[16]     packing[39]  11
    x[16]     packing[40]  153
    x[16]     packing[41]  112
    x[16]     packing[42]  148
    x[16]     packing[43]  116
    x[16]     packing[44]  188
    x[16]     packing[45]  145
    x[16]     packing[46]  175
    x[16]     packing[47]  50
    x[16]     packing[48]  25
    x[16]     packing[49]  155
    x[16]     R52       1
    x[17]     OBJ       178
    x[17]     packing[0]  31
    x[17]     packing[2]  51
    x[17]     packing[3]  111
    x[17]     packing[4]  77
    x[17]     packing[5]  47
    x[17]     packing[6]  94
    x[17]     packing[7]  108
    x[17]     packing[8]  109
    x[17]     packing[9]  130
    x[17]     packing[10]  67
    x[17]     packing[11]  44
    x[17]     packing[12]  100
    x[17]     packing[13]  165
    x[17]     packing[14]  175
    x[17]     packing[15]  60
    x[17]     packing[16]  183
    x[17]     packing[19]  81
    x[17]     packing[21]  12
    x[17]     packing[22]  165
    x[17]     packing[24]  49
    x[17]     packing[25]  92
    x[17]     packing[27]  188
    x[17]     packing[28]  63
    x[17]     packing[29]  189
    x[17]     packing[30]  74
    x[17]     packing[31]  86
    x[17]     packing[32]  198
    x[17]     packing[33]  134
    x[17]     packing[34]  50
    x[17]     packing[35]  111
    x[17]     packing[36]  77
    x[17]     packing[38]  159
    x[17]     packing[39]  133
    x[17]     packing[40]  32
    x[17]     packing[43]  26
    x[17]     packing[44]  186
    x[17]     packing[45]  114
    x[17]     packing[47]  109
    x[17]     packing[48]  81
    x[17]     R52       1
    x[18]     OBJ       97
    x[18]     packing[2]  60
    x[18]     packing[4]  122
    x[18]     packing[5]  156
    x[18]     packing[6]  39
    x[18]     packing[7]  121
    x[18]     packing[8]  181
    x[18]     packing[9]  143
    x[18]     packing[10]  156
    x[18]     packing[11]  142
    x[18]     packing[12]  158
    x[18]     packing[13]  98
    x[18]     packing[14]  32
    x[18]     packing[15]  74
    x[18]     packing[17]  39
    x[18]     packing[18]  167
    x[18]     packing[19]  184
    x[18]     packing[20]  39
    x[18]     packing[21]  39
    x[18]     packing[22]  37
    x[18]     packing[24]  103
    x[18]     packing[26]  107
    x[18]     packing[27]  191
    x[18]     packing[29]  8
    x[18]     packing[31]  36
    x[18]     packing[33]  45
    x[18]     packing[34]  188
    x[18]     packing[35]  186
    x[18]     packing[36]  177
    x[18]     packing[38]  78
    x[18]     packing[42]  121
    x[18]     packing[43]  26
    x[18]     packing[45]  98
    x[18]     packing[46]  83
    x[18]     packing[47]  173
    x[18]     packing[49]  175
    x[19]     OBJ       24
    x[19]     packing[0]  120
    x[19]     packing[1]  66
    x[19]     packing[2]  31
    x[19]     packing[3]  112
    x[19]     packing[6]  7
    x[19]     packing[7]  91
    x[19]     packing[8]  37
    x[19]     packing[9]  91
    x[19]     packing[10]  104
    x[19]     packing[11]  70
    x[19]     packing[12]  22
    x[19]     packing[13]  179
    x[19]     packing[14]  145
    x[19]     packing[16]  180
    x[19]     packing[17]  59
    x[19]     packing[18]  131
    x[19]     packing[19]  82
    x[19]     packing[20]  161
    x[19]     packing[23]  163
    x[19]     packing[24]  114
    x[19]     packing[25]  164
    x[19]     packing[27]  82
    x[19]     packing[28]  54
    x[19]     packing[31]  69
    x[19]     packing[32]  22
    x[19]     packing[33]  193
    x[19]     packing[34]  77
    x[19]     packing[35]  143
    x[19]     packing[36]  95
    x[19]     packing[37]  52
    x[19]     packing[39]  94
    x[19]     packing[40]  47
    x[19]     packing[41]  155
    x[19]     packing[42]  123
    x[19]     packing[43]  12
    x[19]     packing[44]  140
    x[19]     packing[45]  6
    x[19]     packing[46]  187
    x[19]     packing[47]  92
    x[19]     packing[48]  120
    x[19]     packing[49]  117
    x[20]     OBJ       169
    x[20]     packing[0]  137
    x[20]     packing[1]  10
    x[20]     packing[4]  42
    x[20]     packing[5]  91
    x[20]     packing[6]  3
    x[20]     packing[7]  144
    x[20]     packing[9]  3
    x[20]     packing[10]  126
    x[20]     packing[11]  84
    x[20]     packing[13]  146
    x[20]     packing[15]  31
    x[20]     packing[16]  168
    x[20]     packing[17]  143
    x[20]     packing[18]  63
    x[20]     packing[19]  157
    x[20]     packing[22]  116
    x[20]     packing[23]  76
    x[20]     packing[24]  3
    x[20]     packing[25]  102
    x[20]     packing[26]  101
    x[20]     packing[27]  65
    x[20]     packing[30]  166
    x[20]     packing[31]  110
    x[20]     packing[32]  107
    x[20]     packing[34]  120
    x[20]     packing[35]  70
    x[20]     packing[36]  67
    x[20]     packing[38]  92
    x[20]     packing[39]  103
    x[20]     packing[40]  78
    x[20]     packing[41]  68
    x[20]     packing[42]  194
    x[20]     packing[43]  41
    x[20]     packing[44]  69
    x[20]     packing[46]  125
    x[20]     packing[47]  155
    x[20]     packing[48]  139
    x[20]     packing[49]  111
    x[20]     R52       1
    MARKER    'MARKER'                 'INTEND'
RHS
    RHS1      packing[0]  713
    RHS1      packing[1]  798
    RHS1      packing[2]  728
    RHS1      packing[3]  708
    RHS1      packing[4]  727
    RHS1      packing[5]  1040
    RHS1      packing[6]  521
    RHS1      packing[7]  778
    RHS1      packing[8]  531
    RHS1      packing[9]  616
    RHS1      packing[10]  1266
    RHS1      packing[11]  497
    RHS1      packing[12]  493
    RHS1      packing[13]  972
    RHS1      packing[14]  545
    RHS1      packing[15]  480
    RHS1      packing[16]  933
    RHS1      packing[17]  646
    RHS1      packing[18]  740
    RHS1      packing[19]  780
    RHS1      packing[20]  775
    RHS1      packing[21]  736
    RHS1      packing[22]  851
    RHS1      packing[23]  698
    RHS1      packing[24]  679
    RHS1      packing[25]  875
    RHS1      packing[26]  526
    RHS1      packing[27]  948
    RHS1      packing[28]  612
    RHS1      packing[29]  713
    RHS1      packing[30]  768
    RHS1      packing[31]  755
    RHS1      packing[32]  641
    RHS1      packing[33]  709
    RHS1      packing[34]  1023
    RHS1      packing[35]  761
    RHS1      packing[36]  668
    RHS1      packing[37]  872
    RHS1      packing[38]  749
    RHS1      packing[39]  794
    RHS1      packing[40]  865
    RHS1      packing[41]  801
    RHS1      packing[42]  809
    RHS1      packing[43]  608
    RHS1      packing[44]  787
    RHS1      packing[45]  560
    RHS1      packing[46]  988
    RHS1      packing[47]  1069
    RHS1      packing[48]  540
    RHS1      packing[49]  486
    RHS1      R52       5
BOUNDS
 BV BND1      x[1]    
 BV BND1      x[2]    
 BV BND1      x[3]    
 BV BND1      x[4]    
 BV BND1      x[5]    
 BV BND1      x[6]    
 BV BND1      x[7]    
 BV BND1      x[8]    
 BV BND1      x[9]    
 BV BND1      x[10]   
 BV BND1      x[11]   
 BV BND1      x[12]   
 BV BND1      x[13]   
 BV BND1      x[14]   
 BV BND1      x[15]   
 BV BND1      x[16]   
 BV BND1      x[17]   
 BV BND1      x[18]   
 BV BND1      x[19]   
 BV BND1      x[20]   
ENDATA
